nNurses = 75;
nHours = 28;
minHours = 3;
maxHours = 15;
maxConsec = 6;
maxPresence = 27;
demand = [36, 41, 41, 41, 37, 35, 33, 33, 28, 27, 22, 27, 27, 27, 26, 29, 25, 28, 31, 30, 26, 28, 27, 32, 34, 33, 33, 33];
